***Not Resolved***

{
  "Resources":{
    "MyDB" : {
      "Type" : "AWS::RDS::DBInstance",
      "Properties" : {
        "AllocatedStorage" : "5",
        "DBInstanceClass" : "db.m1.small",
        "Engine" : "MySQL",
        "MasterUsername" : "MyName",
        "MasterUserPassword" : "MyPassword"
     },
 "DeletionPolicy" : "Snapshot"
    }
  }
}
